20	5
0	6	4	3	1	6	2	5
1	2	18	14
2	2	16	15
3	2	19	16
4	2	13	19
5	3	16	11	8
6	3	19	11	16
7	1	15
8	1	17
9	1	20
10	1	9
11	1	12
12	1	17
13	2	16	7
14	1	13
15	2	8	11
16	1	20
17	1	10
18	1	8
19	2	12	18
20	1	21
21	0
0	0	0	0	0	0	0
1	2	2	4	1	1	1
2	10	4	5	1	2	4
3	9	4	5	4	1	3
4	5	3	5	3	1	2
5	7	5	4	3	5	3
6	1	1	3	1	1	2
7	3	4	5	5	4	3
8	8	4	4	4	1	2
9	10	3	2	4	2	5
10	7	4	3	3	4	4
11	7	5	4	5	3	4
12	3	5	1	5	1	5
13	10	4	1	5	2	5
14	9	1	5	1	2	1
15	8	3	4	2	5	2
16	2	1	2	2	3	2
17	8	1	2	5	1	3
18	3	5	4	4	2	3
19	4	4	1	4	1	3
20	9	4	1	1	2	2
21	0	0	0	0	0	0
12	14	9	8	9
